&CONTROL
   calculation      = 'vc-relax'
   nstep            = 100
   forc_conv_thr    = 0.001
   disk_io          = 'nowf'
   pseudo_dir       = '/jet/home/hzhao3/pseudopotential/SG15_ONCV_v1.0_upf'
/
&SYSTEM
   ibrav            = 0
   nat              = 64
   ntyp             = 2
   ecutwfc          = 115
/
&ELECTRONS
   conv_thr         = 1e-06
/
&IONS
   ion_dynamics     = 'bfgs'
/
&CELL
   cell_dynamics    = 'bfgs'
   press_conv_thr   = 0.5
/

ATOMIC_SPECIES
C 12.011 C_ONCV_PBE-1.0.upf
F 18.998403163 F_ONCV_PBE-1.0.upf

K_POINTS automatic
4 4 4  0 0 0

CELL_PARAMETERS angstrom
10.48000000000000 0.00000000000000 0.00000000000000
-5.24000000000000 9.07600000000000 0.00000000000000
0.00000000000000 0.00000000000000 6.15000000000000

ATOMIC_POSITIONS angstrom
C -0.1091230000 1.5744591000 3.3210000000  
C 1.1998290000 0.8202435000 2.8290000000  
C 2.5108770000 1.5744591000 2.8290000000  
C 3.8198290000 0.8202435000 3.3210000000  
C 5.1308770000 1.5744591000 3.3210000000  
C 6.4398290000 0.8202435000 3.3210000000  
C 7.7508770000 1.5744591000 2.8290000000  
C 9.0598290000 0.8202435000 2.8290000000  
C -1.4191230000 3.8434591000 2.8290000000  
C -0.1101710000 3.0892435000 3.3210000000  
C 1.2008770000 3.8434591000 3.3210000000  
C 2.5098290000 3.0892435000 3.3210000000  
C 3.8208770000 3.8434591000 2.8290000000  
C 5.1298290000 3.0892435000 3.3210000000  
C 6.4408770000 3.8434591000 3.3210000000  
C 7.7498290000 3.0892435000 3.3210000000  
C -2.7291230000 6.1124591000 2.8290000000  
C -1.4201710000 5.3582435000 2.8290000000  
C -0.1091230000 6.1124591000 2.8290000000  
C 1.1998290000 5.3582435000 3.3210000000  
C 2.5108770000 6.1124591000 2.8290000000  
C 3.8198290000 5.3582435000 2.8290000000  
C 5.1308770000 6.1124591000 3.3210000000  
C 6.4398290000 5.3582435000 2.8290000000  
C -4.0391230000 8.3814591000 2.8290000000  
C -2.7301710000 7.6272435000 2.8290000000  
C -1.4191230000 8.3814591000 3.3210000000  
C -0.1101710000 7.6272435000 2.8290000000  
C 1.2008770000 8.3814591000 2.8290000000  
C 2.5098290000 7.6272435000 2.8290000000  
C 3.8208770000 8.3814591000 3.3210000000  
C 5.1298290000 7.6272435000 3.3210000000  
F -0.1091230000 1.5744591000 4.6950000000  
F 1.1998290000 0.8202435000 1.4550000000  
F 2.5108770000 1.5744591000 1.4550000000  
F 3.8198290000 0.8202435000 4.6950000000  
F 5.1308770000 1.5744591000 4.6950000000  
F 6.4398290000 0.8202435000 4.6950000000  
F 7.7508770000 1.5744591000 1.4550000000  
F 9.0598290000 0.8202435000 1.4550000000  
F -1.4191230000 3.8434591000 1.4550000000  
F -0.1101710000 3.0892435000 4.6950000000  
F 1.2008770000 3.8434591000 4.6950000000  
F 2.5098290000 3.0892435000 4.6950000000  
F 3.8208770000 3.8434591000 1.4550000000  
F 5.1298290000 3.0892435000 4.6950000000  
F 6.4408770000 3.8434591000 4.6950000000  
F 7.7498290000 3.0892435000 4.6950000000  
F -2.7291230000 6.1124591000 1.4550000000  
F -1.4201710000 5.3582435000 1.4550000000  
F -0.1091230000 6.1124591000 1.4550000000  
F 1.1998290000 5.3582435000 4.6950000000  
F 2.5108770000 6.1124591000 1.4550000000  
F 3.8198290000 5.3582435000 1.4550000000  
F 5.1308770000 6.1124591000 4.6950000000  
F 6.4398290000 5.3582435000 1.4550000000  
F -4.0391230000 8.3814591000 1.4550000000  
F -2.7301710000 7.6272435000 1.4550000000  
F -1.4191230000 8.3814591000 4.6950000000  
F -0.1101710000 7.6272435000 1.4550000000  
F 1.2008770000 8.3814591000 1.4550000000  
F 2.5098290000 7.6272435000 1.4550000000  
F 3.8208770000 8.3814591000 4.6950000000  
F 5.1298290000 7.6272435000 4.6950000000  

