&CONTROL
   calculation      = 'scf'
   nstep            = 1
   tstress          = .true.
   tprnfor          = .true.
   prefix           = 'espresso'
   etot_conv_thr    = 0.0001
   forc_conv_thr    = 0.001
   disk_io          = 'nowf'
   pseudo_dir       = '/jet/home/hzhao3/pseudopotential/SG15_ONCV_v1.0_upf'
/
&SYSTEM
   ibrav            = 0
   nat              = 360
   ntyp             = 2
   ecutwfc          = 140
/
&ELECTRONS
   electron_maxstep = 200
   conv_thr         = 1e-06
/
&IONS
/
&CELL
/

ATOMIC_SPECIES
C 12.011 C_ONCV_PBE-1.0.upf
F 18.998403163 F_ONCV_PBE-1.0.upf

K_POINTS automatic
4 4 2  0 0 0

CELL_PARAMETERS angstrom
15.83620800900000 0.20885687100000 -0.00469767300000
-6.44769510000000 11.16528546000000 0.00147619000000
-0.00573994200000 -0.00082869900000 19.22173555800000

ATOMIC_POSITIONS angstrom
C 0.1279609009 1.5481732859 2.9934136985 
C 1.2475404697 0.7149117273 3.6851930024 
C 2.6050723180 1.6285357278 3.5180031285 
C 3.7955381090 0.8451201888 2.9539521813 
F 0.2235848797 1.7460434681 1.5549655535 
F 0.9040306213 0.6446562149 4.8511163182 
F 2.8652374998 1.7797852334 4.8503610838 
F 3.5429737437 0.6781032180 1.5541127657 
C -0.0366196093 1.5936197294 9.2948647768 
C 1.1610402912 0.7954879796 9.9256826272 
C 2.6031590040 1.6282594948 9.9252483145 
C 3.8004295082 0.8300959810 9.2937570129 
F 0.2216715657 1.7457672351 7.9622107395 
F 0.9021173073 0.6443799819 11.2583615042 
F 2.8633241858 1.7795090004 11.2576062698 
F 3.5410604297 0.6778269850 7.9613579517 
C -0.0385329233 1.5933434964 15.7021099628 
C 1.2017810761 0.7597447384 16.2534374302 
C 2.6012456900 1.6279832618 16.3324935005 
C 3.7985161942 0.8298197480 15.7010021989 
F 0.2197582517 1.7454910021 14.3694559255 
F 0.9002039933 0.6441037489 17.6656066902 
F 2.9857148149 1.8659439150 17.8259200369 
F 3.5391471157 0.6775507520 14.3686031377 
C -1.2962907116 3.8012066146 2.7761683343 
C -0.1265854148 3.0288213046 3.5187326792 
C 1.3155332980 3.8615928198 3.5182983665 
C 2.5128038022 3.0634293060 2.8868070649 
F -1.0659541403 3.9791005601 1.5552607915 
F -0.3855083987 2.8777133069 4.8514115562 
F 1.5756984798 4.0128423254 4.8506563218 
F 2.0951321897 2.9947605688 1.5974330026 
C -1.3261586293 3.8266768214 9.2951600148 
C -0.1284987288 3.0285450716 9.9259778652 
C 1.3136199840 3.8613165868 9.9255435525 
C 2.5108904882 3.0631530730 9.2940522509 
F -1.0678674543 3.9788243271 7.9625059775 
F -0.3874217127 2.8774370739 11.2586567422 
F 1.5737851658 4.0125660924 11.2579015078 
F 2.2515214097 2.9108840770 7.9616531897 
C -1.3280719433 3.8264005884 15.7024052008 
C -0.1304120428 3.0282688386 16.3332230512 
C 1.3117066700 3.8610403538 16.3327887385 
C 2.5089771742 3.0628768400 15.7012974369 
F -1.0697807683 3.9785480941 14.3697511635 
F -0.3893350267 2.8771608409 17.6659019282 
F 1.3868605753 3.9153669721 17.6903039788 
F 2.2496080957 2.9106078440 14.3688983757 
C -2.6137843353 6.0600101464 2.8882100668 
C -1.2606559367 5.3541026400 3.5446138699 
C 0.0259942780 6.0946499118 3.5185936045 
C 1.2232647822 5.2964863980 2.8871023029 
F -2.3554931603 6.2121576521 1.5555560295 
F -1.6750474187 5.1107703989 4.8517067942 
F 0.2861594598 6.2458994174 4.8509515598 
F 0.8873493476 5.1486863324 1.5035814852 
C -2.6156976493 6.0597339134 9.2954552528 
C -1.4180377488 5.2616021636 9.9262731032 
C 0.0240809640 6.0943736788 9.9258387905 
C 1.2213514682 5.2962101650 9.2943474889 
F -2.3574064743 6.2118814191 7.9628012155 
F -1.6769607327 5.1104941659 11.2589519802 
F 0.2842461458 6.2456231844 11.2581967458 
F 0.9619823897 5.1439411690 7.9619484277 
C -2.7215444945 6.1134777797 15.6565885303 
C -1.4960373728 5.3335880772 16.3731970015 
C 0.0221676500 6.0940974458 16.3330839765 
C 1.2194381542 5.2959339320 15.7015926749 
F -2.3593197883 6.2116051861 14.3700464015 
F -1.6788740467 5.1102179329 17.6661971662 
F 0.3584186574 6.3270504924 17.8466413965 
F 0.9600690757 5.1436649360 14.3691936137 
C -3.9033233553 8.2930672384 2.8885053048 
C -2.7056634548 7.4949354886 3.5193231552 
C -1.3384543996 8.4020237508 3.5005675308 
C -0.0362269146 7.5421001936 2.9008149371 
F -3.6450321803 8.4452147441 1.5558512675 
F -3.0723317872 7.5094538403 4.8602650218 
F -1.0033795602 8.4789565094 4.8512467978 
F -0.3256433163 7.3772744940 1.5549984797 
C -3.9921979021 8.3159089321 9.2883261264 
C -2.7075767688 7.4946592556 9.9265683412 
C -1.2654580560 8.3274307708 9.9261340285 
C -0.0681875518 7.5292672570 9.2946427269 
F -3.7360977599 8.4602299100 7.9845720497 
F -2.9664997527 7.3435512579 11.2592472182 
F -1.0052928742 8.4786802764 11.2584919838 
F -0.3275566303 7.3769982610 7.9622436657 
C -3.9071499833 8.2925147724 15.7029956768 
C -2.7094900828 7.4943830226 16.3338135272 
C -1.3488290483 8.3424585622 16.2392604733 
C -0.0701008658 7.5289910240 15.7018879129 
F -3.6488588083 8.4446622781 14.3703416395 
F -2.9684130667 7.3432750249 17.6664924042 
F -1.0072061882 8.4784040434 17.6657371698 
F -0.3294699443 7.3767220280 14.3694888517 
C -5.1928623753 10.5261243304 2.8888005428 
C -3.9952024748 9.7279925806 3.5196183932 
C -2.5530837620 10.5607640958 3.5191840805 
C -1.3558132578 9.7626005820 2.8876927789 
F -4.9345712003 10.6782718361 1.5561465055 
F -4.2541254587 9.5768845829 4.8522972702 
F -2.2929185802 10.7120136014 4.8515420358 
F -1.6151823363 9.6103315860 1.5552937177 
C -5.1947756893 10.5258480974 9.2960457288 
C -3.9971157888 9.7277163476 9.9268635792 
C -2.3253903767 10.4722449366 9.9066076230 
C -1.3577265718 9.7623243490 9.2949379649 
F -4.9364845143 10.6779956031 7.9633916915 
F -4.2560387727 9.5766083499 11.2595424562 
F -2.3708036415 10.6617651959 11.2277819754 
F -1.6170956503 9.6100553530 7.9625389037 
C -5.1966890033 10.5255718644 15.7032909148 
C -3.9990291028 9.7274401146 16.3341087652 
C -2.5569103900 10.5602116298 16.3336744525 
C -1.3831563956 9.6722717033 15.9730198912 
F -4.9383978283 10.6777193701 14.3706368775 
F -4.2579520867 9.5763321169 17.6667876422 
F -2.2967452082 10.7114611354 17.6660324078 
F -1.8460443404 9.7171275346 14.3015637917 
C 5.2782037275 1.8377376834 2.8521295609 
C 6.3967659943 0.6511488315 3.3527884325 
C 7.9147699426 1.4540789169 3.4623374953 
C 9.0810788252 0.8999911710 2.8849459359 
F 5.5023208827 1.8156624251 1.5533996625 
F 6.1827666243 0.7142751719 4.8495504272 
F 8.1439735028 1.8494041904 4.8487951928 
F 8.8217097467 0.7477221750 1.5525468747 
C 5.2421163937 1.6632386864 9.2932988858 
C 6.4397762942 0.8651069366 9.9241167362 
C 7.8818950070 1.6978784518 9.9236824235 
C 9.0791655112 0.8997149380 9.2921911219 
F 5.5004075687 1.8153861921 7.9606448485 
F 6.1808533103 0.7139989389 11.2567956132 
F 8.1420601888 1.8491279574 11.2560403788 
F 8.8197964327 0.7474459420 7.9597920607 
C 5.2402030797 1.6629624534 15.7005440718 
C 6.1183057351 0.8740403958 16.3705674537 
C 7.8107788124 1.7047680047 16.3963670542 
C 9.2423134684 0.9277617386 15.8038075196 
F 5.4984942547 1.8151099591 14.3678900345 
F 6.1789399963 0.7137227059 17.6640407992 
F 8.1401468748 1.8488517244 17.6632855648 
F 8.8382586301 0.6360448731 14.4917457112 
C 3.9544906877 3.8965720114 2.8863489378 
C 5.1521505882 3.0984402616 3.5171667882 
C 6.5942693010 3.9312117768 3.5167324755 
C 7.5606139857 3.3448752782 2.9045893766 
F 4.1967483115 4.0077994574 1.6190838846 
F 4.8932276043 2.9473322639 4.8498456652 
F 6.8544344828 4.0824612824 4.8490904308 
F 7.5321707267 2.9807792670 1.5528421127 
C 3.9525773737 3.8962957784 9.2935941238 
C 5.1502372742 3.0981640286 9.9244119742 
C 6.5923559870 3.9309355438 9.9239776615 
C 7.7896264912 3.1327720300 9.2924863599 
F 4.2108685487 4.0484432841 7.9609400865 
F 4.8913142903 2.9470560309 11.2570908512 
F 6.8525211688 4.0821850494 11.2563356168 
F 7.5302574127 2.9805030340 7.9600872987 
C 3.9506640597 3.8960195454 15.7008393098 
C 5.1483239602 3.0978877956 16.3316571602 
C 6.5904426730 3.9306593108 16.3312228475 
C 7.7877131772 3.1324957970 15.6997315459 
F 4.2089552347 4.0481670511 14.3681852725 
F 4.8691704878 2.6411476419 17.6627310501 
F 6.8635284896 4.0642582277 17.7412846667 
F 7.5283440987 2.9802268010 14.3673324847 
C 2.6649516677 6.1296291034 2.8866441758 
C 3.8626115682 5.3314973536 3.5174620262 
C 5.3047302810 6.1642688688 3.5170277135 
C 6.5020007852 5.3661053550 2.8855364119 
F 2.7957086811 6.2622589208 1.4206254924 
F 3.6036885843 5.1803893559 4.8501409032 
F 5.5648954628 6.3155183744 4.8493856688 
F 6.2925384975 5.0132405490 1.7399926989 
C 2.6630383537 6.1293528704 9.2938893618 
C 3.8606982542 5.3312211206 9.9247072122 
C 5.3028169670 6.1639926358 9.9242728995 
C 6.5000874712 5.3658291220 9.2927815979 
F 2.9213295287 6.2815003761 7.9612353245 
F 3.6017752703 5.1801131229 11.2573860892 
F 5.5629821488 6.3152421414 11.2566308548 
F 6.2407183927 5.2135601260 7.9603825367 
C 2.6611250397 6.1290766374 15.7011345478 
C 3.8587849402 5.3309448876 16.3319523982 
C 5.3009036530 6.1637164028 16.3315180855 
C 6.4981741572 5.3655528890 15.7000267839 
F 2.9194162147 6.2812241431 14.3684805105 
F 3.5998619563 5.1798368899 17.6646312752 
F 5.5610688348 6.3149659084 17.6638760408 
F 6.2388050787 5.2132838930 14.3676277227 
C 1.4383623008 8.4843035008 2.8879163868 
C 2.5730725482 7.5645544456 3.5177572642 
C 4.0151912610 8.3973259608 3.5173229515 
C 5.2124617652 7.5991624470 2.8858316499 
F 1.6337038227 8.5148337011 1.5542853765 
F 2.3141495643 7.4134464479 4.8504361412 
F 4.2753564428 8.5485754664 4.8496809068 
F 5.0844417194 7.4499437765 1.7051704235 
C 1.3734993337 8.3624099624 9.2941845998 
C 2.5711592342 7.5642782126 9.9250024502 
C 4.0132779470 8.3970497278 9.9245681375 
C 5.2105484512 7.5988862140 9.2930768359 
F 1.6317905087 8.5145574681 7.9615305625 
F 2.3122362503 7.4131702149 11.2576813272 
F 4.2734431288 8.5482992334 11.2569260928 
F 4.9511793727 7.4466172180 7.9606777747 
C 1.3715860197 8.3621337294 15.7014297858 
C 2.5692459202 7.5640019796 16.3322476362 
C 4.0113646330 8.3967734948 16.3318133235 
C 5.2086351372 7.5986099810 15.7003220219 
F 1.6298771947 8.5142812351 14.3687757485 
F 2.2964943623 7.4577430337 17.7150593313 
F 4.2455526678 8.4619886226 17.5483978018 
F 4.9492660587 7.4463409850 14.3679229607 
C 0.0858736277 10.5957432874 2.8872346518 
C 1.3311549993 9.6675603320 3.5619734144 
C 2.9521322086 10.5428247392 3.5026938117 
C 3.8471015993 9.7987782503 2.6546505899 
F 0.3441648027 10.7478907931 1.5545806145 
F 1.0246105443 9.6465035399 4.8507313792 
F 2.9858174228 10.7816325584 4.8499761448 
F 3.6635536667 9.6799505430 1.5537278267 
C 0.0839603137 10.5954670544 9.2944798378 
C 1.2816202142 9.7973353046 9.9252976882 
C 2.7237389270 10.6301068198 9.9248633755 
C 3.9210094312 9.8319433060 9.2933720739 
F 0.3422514887 10.7476145601 7.9618258005 
F 1.0226972303 9.6462273069 11.2579765652 
F 2.9839041088 10.7813563254 11.2572213308 
F 3.6616403527 9.6796743100 7.9609730127 
C 0.1006561132 10.8120244929 15.8021108326 
C 1.1374917068 9.7280004451 16.3505542463 
C 2.5976135293 10.5151475451 16.3264154186 
C 3.9190961172 9.8316670730 15.7006172599 
F 0.3403381747 10.7473383271 14.3690709865 
F 1.0207839163 9.6459510739 17.6652217512 
F 2.9819907948 10.7810800924 17.6644665168 
F 3.6597270387 9.6793980770 14.3682181987 
C 10.5227657107 1.7331338764 2.8844878088 
C 11.7204256112 0.9350021266 3.5153056592 
C 13.1625443240 1.7677736418 3.5148713465 
C 14.3598148282 0.9696101280 2.8833800449 
F 10.7810568857 1.8852813821 1.5518337715 
F 11.4615026273 0.7838941289 4.8479845362 
F 13.4227095058 1.9190231474 4.8472293018 
F 14.1004457497 0.8173411320 1.5509809837 
C 10.5208523967 1.7328576434 9.2917329948 
C 11.7185122972 0.9347258936 9.9225508452 
C 13.1606310100 1.7674974088 9.9221165325 
C 14.3579015142 0.9693338950 9.2906252309 
F 10.7791435717 1.8850051491 7.9590789575 
F 11.5958790284 0.6548651130 11.5027043610 
F 13.4207961918 1.9187469144 11.2544744878 
F 14.0985324357 0.8170648990 7.9582261697 
C 10.5189390827 1.7325814104 15.6989781808 
C 11.7165989832 0.9344496606 16.3297960312 
C 13.1587176960 1.7672211758 16.3293617185 
C 14.3559882002 0.9690576620 15.6978704169 
F 10.8163134199 1.8238538046 14.4199363874 
F 11.4576759993 0.7833416629 17.6624749082 
F 13.4188828778 1.9184706814 17.6617196738 
F 14.0966191217 0.8167886660 14.3654713557 
C 9.1924638222 4.0553912877 2.8848165525 
C 10.4308865912 3.1680592186 3.5156008972 
C 11.8730053040 4.0008307338 3.5151665845 
C 13.0702758082 3.2026672200 2.8836752829 
F 9.4915178657 4.1183384741 1.5521290095 
F 10.1256380298 3.0815595082 4.8021145695 
F 12.1331704858 4.1520802394 4.8475245398 
F 12.8109067297 3.0503982240 1.5512762217 
C 9.2313133767 3.9659147354 9.2920282328 
C 10.4289732772 3.1677829856 9.9228460832 
C 12.0082337941 3.9889660837 9.7578751527 
C 13.0683624942 3.2023909870 9.2909204689 
F 9.4896045517 4.1180622411 7.9593741955 
F 10.1700502933 3.0166749879 11.2555249602 
F 12.0571663043 3.9205227648 11.2590805603 
F 12.8089934157 3.0501219910 7.9585214077 
C 9.0550926470 3.8598885467 15.5483750446 
C 10.4270599632 3.1675067526 16.3300912692 
C 11.8691786760 4.0002782678 16.3296569565 
C 13.0664491802 3.2021147540 15.6981656549 
F 9.4876912377 4.1177860081 14.3666193815 
F 10.1681369793 3.0163987549 17.6627701462 
F 12.1293438578 4.1515277734 17.6620149118 
F 12.8070801017 3.0498457580 14.3657665937 
C 7.7465639889 6.1062694374 2.9376049304 
C 9.0495184950 5.4322754296 3.5156398754 
C 10.5834662840 6.2338878258 3.5154618225 
C 11.7807367882 5.4357243120 2.8839705209 
F 8.2019788457 6.3513955661 1.5524242475 
F 8.8824245873 5.2500083129 4.8485750122 
F 10.8790456973 6.4629167681 4.8567818743 
F 11.5213677097 5.2834553160 1.5515714597 
C 7.9417743567 6.1989718274 9.2923234708 
C 9.1394342572 5.4008400776 9.9231413212 
C 10.5815529700 6.2336115928 9.9227070085 
C 11.7788234742 5.4354480790 9.2912157069 
F 8.2000655317 6.3511193331 7.9596694335 
F 8.8805112733 5.2497320799 11.2558201982 
F 10.8417181518 6.3848610984 11.2550649638 
F 11.5194543957 5.2831790830 7.9588166457 
C 7.9398610427 6.1986955944 15.6995686568 
C 9.1565293556 5.6326256448 16.2744199995 
C 10.5796396560 6.2333353598 16.3299521945 
C 11.7769101602 5.4351718460 15.6984608929 
F 8.1981522177 6.3508431001 14.3669146195 
F 8.8785979593 5.2494558469 17.6630653842 
F 10.8398048378 6.3845848654 17.6623101498 
F 11.3277257476 5.0786062823 14.3979152911 
C 6.6828051515 8.5171465416 3.0183042085 
C 7.8518085512 7.6341734026 3.5161913732 
C 9.2718687474 8.3446898199 3.8054810729 
C 10.4911977682 7.6687814040 2.8842657589 
F 6.9124398257 8.5844526581 1.5527194855 
F 7.5928855673 7.4830654049 4.8488702502 
F 9.5827118133 8.6160825653 4.7916568125 
F 10.2318286897 7.5165124080 1.5518666977 
C 6.6522353367 8.4320289194 9.2926187088 
C 7.8498952372 7.6338971696 9.9234365592 
C 9.2920139500 8.4666686848 9.9230022465 
C 10.4892844542 7.6685051710 9.2915109449 
F 6.9105265117 8.5841764251 7.9599646715 
F 7.5909722533 7.4827891719 11.2561154362 
F 9.5521791318 8.6179181904 11.2553602018 
F 10.2299153757 7.5162361750 7.9591118837 
C 6.6503220227 8.4317526864 15.6998638948 
C 7.8479819232 7.6336209366 16.3306817452 
C 9.1851420561 8.5201812979 16.4359743044 
C 10.4873711402 7.6682289380 15.6987561309 
F 6.9086131977 8.5839001921 14.3672098575 
F 7.5025455823 7.5300016493 17.6720597941 
F 9.5502658178 8.6176419574 17.6626053878 
F 10.2866124940 7.4803400391 14.3936045541 
C 5.2751003477 10.7992555081 2.8692763729 
C 6.4830478719 9.7775373154 3.5096773825 
C 8.0043882440 10.7000020098 3.5160522985 
C 9.2016587482 9.9018384960 2.8845609969 
F 5.6229008057 10.8175097501 1.5530147235 
F 6.3033465473 9.7161224969 4.8491654882 
F 8.4614535363 10.7751482263 4.8207593177 
F 8.9422896697 9.7495695000 1.5521619357 
C 5.3626963167 10.6650860114 9.2929139468 
C 6.5603562172 9.8669542616 9.9237317972 
C 8.0024749300 10.6997257768 9.9232974845 
C 9.1997454342 9.9015622630 9.2918061829 
F 5.6209874917 10.8172335171 7.9602599095 
F 6.3014332333 9.7158462639 11.2564106742 
F 8.2626401118 10.8509752824 11.2556554398 
F 8.9403763557 9.7492932670 7.9594071217 
C 5.4298383027 10.7221452818 15.9407630109 
C 6.6894907314 9.7618284791 16.2421749268 
C 8.0005616160 10.6994495438 16.3305426705 
C 9.1978321202 9.9012860300 15.6990513689 
F 5.6190741777 10.8169572841 14.3675050955 
F 6.2995199193 9.7155700309 17.6636558602 
F 8.2607267978 10.8506990494 17.6629006258 
F 8.9647185352 9.9111823542 14.4328868767 

